(set-info :smt-lib-version 2.6)
(set-logic LIA)
(set-info
  :source |
 Generated by PSyCO 0.1
 More info in N. P. Lopes and J. Monteiro. Weakest Precondition Synthesis for
 Compiler Optimizations, VMCAI'14.
|)
(set-info :category "industrial")
(set-info :status sat)
(declare-fun W_S2_V6 () Bool)
(declare-fun W_S2_V4 () Bool)
(declare-fun W_S2_V2 () Bool)
(declare-fun W_S2_V3 () Bool)
(declare-fun W_S2_V1 () Bool)
(declare-fun W_S1_V6 () Bool)
(declare-fun W_S1_V5 () Bool)
(declare-fun W_S1_V2 () Bool)
(declare-fun W_S1_V3 () Bool)
(declare-fun W_S1_V1 () Bool)
(declare-fun R_S1_V1 () Bool)
(declare-fun R_S2_V6 () Bool)
(declare-fun R_S2_V4 () Bool)
(declare-fun R_S2_V5 () Bool)
(declare-fun R_S2_V2 () Bool)
(declare-fun R_S2_V3 () Bool)
(declare-fun R_S2_V1 () Bool)
(declare-fun R_E1_V6 () Bool)
(declare-fun R_E1_V4 () Bool)
(declare-fun R_E1_V5 () Bool)
(declare-fun R_E1_V2 () Bool)
(declare-fun R_E1_V3 () Bool)
(declare-fun R_E1_V1 () Bool)
(declare-fun DISJ_W_S2_R_E1 () Bool)
(declare-fun DISJ_W_S2_R_S2 () Bool)
(declare-fun R_S1_V6 () Bool)
(declare-fun R_S1_V4 () Bool)
(declare-fun R_S1_V5 () Bool)
(declare-fun R_S1_V2 () Bool)
(declare-fun R_S1_V3 () Bool)
(declare-fun DISJ_W_S2_R_S1 () Bool)
(declare-fun DISJ_W_S1_W_S2 () Bool)
(declare-fun DISJ_W_S1_R_E1 () Bool)
(declare-fun DISJ_W_S1_R_S2 () Bool)
(declare-fun DISJ_W_S1_R_S1 () Bool)
(declare-fun W_S2_V5 () Bool)
(declare-fun W_S1_V4 () Bool)
(assert
 (let
 (($x1615
   (forall
    ((V1_0 Int) (V3_0 Int) 
     (V2_0 Int) (V5_0 Int) 
     (V4_0 Int) (V6_0 Int) 
     (MW_S1_V1 Bool) (MW_S1_V3 Bool) 
     (MW_S1_V2 Bool) (MW_S1_V5 Bool) 
     (MW_S1_V4 Bool) (MW_S1_V6 Bool) 
     (MW_S2_V1 Bool) (MW_S2_V3 Bool) 
     (MW_S2_V2 Bool) (MW_S2_V5 Bool) 
     (MW_S2_V4 Bool) (MW_S2_V6 Bool) 
     (S1_V1_!158 Int) (S1_V1_!171 Int) 
     (S2_V5_!167 Int) (S2_V5_!180 Int) 
     (S1_V3_!159 Int) (S1_V3_!172 Int) 
     (S1_V2_!160 Int) (S1_V2_!173 Int) 
     (E1_!157 Int) (E1_!170 Int) 
     (E1_!183 Int) (S2_V4_!168 Int) 
     (S2_V4_!181 Int) (S2_V6_!169 Int) 
     (S2_V6_!182 Int) (S1_V5_!161 Int) 
     (S1_V5_!174 Int) (S2_V1_!164 Int) 
     (S2_V1_!177 Int) (S1_V4_!162 Int) 
     (S1_V4_!175 Int) (S2_V3_!165 Int) 
     (S2_V3_!178 Int) (S2_V2_!166 Int) 
     (S2_V2_!179 Int) (S1_V6_!163 Int) 
     (S1_V6_!176 Int))
    (let
    (($x1435
      (= (ite MW_S2_V6 S2_V6_!169 (ite MW_S1_V6 S1_V6_!163 V6_0))
      (ite MW_S2_V6 S2_V6_!182 (ite MW_S1_V6 S1_V6_!176 V6_0)))))
    (let
    (($x1440
      (= (ite MW_S2_V4 S2_V4_!168 (ite MW_S1_V4 S1_V4_!162 V4_0))
      (ite MW_S2_V4 S2_V4_!181 (ite MW_S1_V4 S1_V4_!175 V4_0)))))
    (let
    (($x1446
      (= (ite MW_S2_V5 S2_V5_!167 (ite MW_S1_V5 S1_V5_!161 V5_0))
      (ite MW_S2_V5 S2_V5_!180 (ite MW_S1_V5 S1_V5_!174 V5_0)))))
    (let ((?x1447 (ite MW_S1_V2 S1_V2_!173 V2_0)))
    (let ((?x1448 (ite MW_S2_V2 S2_V2_!179 ?x1447)))
    (let
    (($x1459
      (= (ite MW_S2_V3 S2_V3_!165 (+ 1 (ite MW_S1_V3 S1_V3_!159 V3_0)))
      (+ (ite MW_S2_V3 S2_V3_!178 (ite MW_S1_V3 S1_V3_!172 V3_0)) ?x1448
      (* (- 1) E1_!183)))))
    (let ((?x1460 (ite MW_S1_V1 S1_V1_!171 E1_!170)))
    (let ((?x1487 (ite MW_S2_V1 S2_V1_!177 ?x1460)))
    (let
    (($x1271
      (and
      (= (ite MW_S2_V1 S2_V1_!164 (ite MW_S1_V1 S1_V1_!158 E1_!157)) ?x1487)
      $x1459
      (= (ite MW_S2_V2 S2_V2_!166 (ite MW_S1_V2 S1_V2_!160 V2_0)) ?x1448)
      $x1446 $x1440 $x1435)))
    (let
    (($x1381
      (>= (ite MW_S2_V1 S2_V1_!164 (ite MW_S1_V1 S1_V1_!158 E1_!157))
      (+ (- 1) (ite MW_S2_V2 S2_V2_!166 (ite MW_S1_V2 S1_V2_!160 V2_0))))))
    (let
    (($x1499
      (and (not (<= V2_0 E1_!157)) $x1381 
      (not (<= V2_0 E1_!170)) 
      (>= ?x1487 (+ (- 1) ?x1448)))))
    (let (($x245 (not R_S2_V3)))
    (let
    (($x1545
      (and (or (not R_S2_V1) (= ?x1460 (ite MW_S1_V1 S1_V1_!158 E1_!157)))
      (or $x245
      (= (ite MW_S1_V3 S1_V3_!172 V3_0) (+ 1 (ite MW_S1_V3 S1_V3_!159 V3_0))))
      (or (not R_S2_V2) (= ?x1447 (ite MW_S1_V2 S1_V2_!160 V2_0)))
      (or (not R_S2_V5)
      (= (ite MW_S1_V5 S1_V5_!174 V5_0) (ite MW_S1_V5 S1_V5_!161 V5_0)))
      (or (not R_S2_V4)
      (= (ite MW_S1_V4 S1_V4_!175 V4_0) (ite MW_S1_V4 S1_V4_!162 V4_0)))
      (or (not R_S2_V6)
      (= (ite MW_S1_V6 S1_V6_!176 V6_0) (ite MW_S1_V6 S1_V6_!163 V6_0))))))
    (let (($x1546 (not $x1545)))
    (let
    (($x1562
      (and (or (not R_S2_V1) (= (ite MW_S1_V1 S1_V1_!158 E1_!157) ?x1460))
      (or $x245
      (= (ite MW_S1_V3 S1_V3_!159 V3_0)
      (+ (- 1) (ite MW_S1_V3 S1_V3_!172 V3_0))))
      (or (not R_S2_V2) (= (ite MW_S1_V2 S1_V2_!160 V2_0) ?x1447))
      (or (not R_S2_V5)
      (= (ite MW_S1_V5 S1_V5_!161 V5_0) (ite MW_S1_V5 S1_V5_!174 V5_0)))
      (or (not R_S2_V4)
      (= (ite MW_S1_V4 S1_V4_!162 V4_0) (ite MW_S1_V4 S1_V4_!175 V4_0)))
      (or (not R_S2_V6)
      (= (ite MW_S1_V6 S1_V6_!163 V6_0) (ite MW_S1_V6 S1_V6_!176 V6_0))))))
    (let
    (($x1589
      (and (or (not R_E1_V1) (= V1_0 (+ 1 ?x1487)))
      (or (not R_E1_V3)
      (= V3_0 (ite MW_S2_V3 S2_V3_!178 (ite MW_S1_V3 S1_V3_!172 V3_0))))
      (or (not R_E1_V2) (= V2_0 ?x1448))
      (or (not R_E1_V5)
      (= V5_0 (ite MW_S2_V5 S2_V5_!180 (ite MW_S1_V5 S1_V5_!174 V5_0))))
      (or (not R_E1_V4)
      (= V4_0 (ite MW_S2_V4 S2_V4_!181 (ite MW_S1_V4 S1_V4_!175 V4_0))))
      (or (not R_E1_V6)
      (= V6_0 (ite MW_S2_V6 S2_V6_!182 (ite MW_S1_V6 S1_V6_!176 V6_0)))))))
    (let
    (($x1612
      (and
      (or (not (or (not R_S1_V1) (= E1_!157 E1_!170)))
      (= S1_V1_!158 S1_V1_!171)) 
      (or $x1546 (= S2_V5_!180 S2_V5_!167))
      (or (not (or (not R_S1_V1) (= E1_!157 E1_!170)))
      (= S1_V3_!159 S1_V3_!172))
      (or (not (or (not R_S1_V1) (= E1_!170 E1_!157)))
      (= S1_V2_!173 S1_V2_!160)) 
      (= E1_!157 E1_!170) 
      (or (not $x1589) (= E1_!157 E1_!183))
      (or (not $x1589) (= E1_!170 E1_!183))
      (or (not $x1562) (= S2_V4_!168 S2_V4_!181))
      (or $x1546 (= S2_V6_!182 S2_V6_!169))
      (or (not (or (not R_S1_V1) (= E1_!170 E1_!157)))
      (= S1_V5_!174 S1_V5_!161)) 
      (or $x1546 (= S2_V1_!177 S2_V1_!164))
      (or (not (or (not R_S1_V1) (= E1_!170 E1_!157)))
      (= S1_V4_!175 S1_V4_!162)) 
      (or (not $x1562) (= S2_V3_!165 S2_V3_!178))
      (or $x1546 (= S2_V2_!179 S2_V2_!166))
      (or (not (or (not R_S1_V1) (= E1_!170 E1_!157)))
      (= S1_V6_!176 S1_V6_!163)) 
      (or (not MW_S1_V1) W_S1_V1) 
      (or (not MW_S1_V3) W_S1_V3) 
      (or (not MW_S1_V2) W_S1_V2) 
      (or (not MW_S1_V5) W_S1_V5) 
      (or (not MW_S1_V6) W_S1_V6) 
      (or (not MW_S2_V1) W_S2_V1) 
      (or (not MW_S2_V3) W_S2_V3) 
      (or (not MW_S2_V2) W_S2_V2) 
      (or (not MW_S2_V4) W_S2_V4) 
      (or (not MW_S2_V6) W_S2_V6)))) 
    (or (not $x1612) (not $x1499) $x1271)))))))))))))))))))))
 (let
 (($x128
   (or (and W_S2_V1 R_E1_V1) 
   (and W_S2_V3 R_E1_V3) (and W_S2_V2 R_E1_V2) R_E1_V5 
   (and W_S2_V4 R_E1_V4) (and W_S2_V6 R_E1_V6))))
 (let (($x130 (= DISJ_W_S2_R_E1 (not $x128))))
 (let
 (($x125
   (or (and W_S2_V1 R_S2_V1) 
   (and W_S2_V3 R_S2_V3) (and W_S2_V2 R_S2_V2) R_S2_V5 
   (and W_S2_V4 R_S2_V4) (and W_S2_V6 R_S2_V6))))
 (let (($x127 (= DISJ_W_S2_R_S2 (not $x125))))
 (let
 (($x122
   (or (and W_S2_V1 R_S1_V1) 
   (and W_S2_V3 R_S1_V3) (and W_S2_V2 R_S1_V2) R_S1_V5 
   (and W_S2_V4 R_S1_V4) (and W_S2_V6 R_S1_V6))))
 (let (($x124 (= DISJ_W_S2_R_S1 (not $x122))))
 (let
 (($x119
   (or (and W_S1_V1 W_S2_V1) 
   (and W_S1_V3 W_S2_V3) (and W_S1_V2 W_S2_V2) W_S1_V5 W_S2_V4
   (and W_S1_V6 W_S2_V6))))
 (let (($x121 (= DISJ_W_S1_W_S2 (not $x119))))
 (let
 (($x116
   (or (and W_S1_V1 R_E1_V1) 
   (and W_S1_V3 R_E1_V3) (and W_S1_V2 R_E1_V2) 
   (and W_S1_V5 R_E1_V5) R_E1_V4 
   (and W_S1_V6 R_E1_V6))))
 (let (($x118 (= DISJ_W_S1_R_E1 (not $x116))))
 (let
 (($x113
   (or (and W_S1_V1 R_S2_V1) 
   (and W_S1_V3 R_S2_V3) (and W_S1_V2 R_S2_V2) 
   (and W_S1_V5 R_S2_V5) R_S2_V4 
   (and W_S1_V6 R_S2_V6))))
 (let (($x115 (= DISJ_W_S1_R_S2 (not $x113))))
 (let
 (($x110
   (or (and W_S1_V1 R_S1_V1) 
   (and W_S1_V3 R_S1_V3) (and W_S1_V2 R_S1_V2) 
   (and W_S1_V5 R_S1_V5) R_S1_V4 
   (and W_S1_V6 R_S1_V6))))
 (let (($x112 (= DISJ_W_S1_R_S1 (not $x110))))
 (and W_S1_V4 W_S2_V5 $x112 $x115 $x118 $x121 $x124 $x127 $x130 $x1615)))))))))))))))))
(check-sat)
(exit)

